NAME: (-)-Epicatechin
PRECURSORMZ: 289.0712
PRECURSORTYPE: [M-H]-
FORMULA: C15H14O6
RETENTIONTIME: 2.423
IONMODE: Negative
COMMENT: Spectra extracted with MS2extract R package
INCHIKEY: PFTAWBLQPZVEMU-UKRRQHHQSA-N
SMILES: C1C(C(OC2=CC(=CC(=C21)O)O)C3=CC(=C(C=C3)O)O)O
CCS: 
COLLISIONENERGY: 20eV
INSTRUMENTTYPE: QTOF Agilent 6545
Num Peaks: 53
108.02162 2
109.02959 100
121.02971 16
122.03749 4
123.04522 56
125.02451 80
135.04522 7
137.02447 39
138.03231 5
139.04002 9
145.02952 4
146.03731 3
147.04504 2
149.02462 21
150.03216 3
151.04009 48
159.04513 7
160.05306 6
161.02454 4
161.06096 21
162.03227 7
163.03995 5
164.01167 13
165.01959 18
166.02703 4
167.03491 9
173.06063 3
174.03236 2
174.06814 2
175.04005 9
175.07611 8
177.05562 3
179.03533 25
180.04289 2
185.06076 4
186.06868 2
187.04021 21
188.04801 17
199.07621 3
201.05546 2
202.0636 12
203.07127 77
205.05064 43
212.04767 3
217.08679 4
221.08239 29
227.07146 12
230.05831 5
231.02959 3
245.08196 69
247.06106 7
271.06104 5
289.07177 40

NAME: (E)-Cinamic acid
PRECURSORMZ: 147.0452
PRECURSORTYPE: [M-H]-
FORMULA: C9H8O2
RETENTIONTIME: 3.681
IONMODE: Negative
COMMENT: Spectra extracted with MS2extract R package
INCHIKEY: WBYWAXJHAXSJNI-VOTSOKGWSA-N
SMILES: C1=CC=C(C=C1)C=CC(=O)O
CCS: 
COLLISIONENERGY: 20eV
INSTRUMENTTYPE: QTOF Agilent 6545
Num Peaks: 1
103.05521 100

NAME: (E)-Ferrulic acid
PRECURSORMZ: 193.0507
PRECURSORTYPE: [M-H]-
FORMULA: C10H10O4
RETENTIONTIME: 2.834
IONMODE: Negative
COMMENT: Spectra extracted with MS2extract R package
INCHIKEY: KSEBMYQBYZTDHS-HWKANZROSA-N
SMILES: COC1=C(C=CC(=C1)C=CC(=O)O)O
CCS: 
COLLISIONENERGY: 20eV
INSTRUMENTTYPE: QTOF Agilent 6545
Num Peaks: 4
106.04242 2
133.03011 8
134.03789 100
178.02786 8

NAME: 2-3-Dihydroxybenzoic acid
PRECURSORMZ: 153.01939
PRECURSORTYPE: [M-H]-
FORMULA: C7H6O4
RETENTIONTIME: 2.338
IONMODE: Negative
COMMENT: Spectra extracted with MS2extract R package
INCHIKEY: GLDQAMYCGOIJDV-UHFFFAOYSA-N
SMILES: C1=CC(=C(C(=C1)O)O)C(=O)O
CCS: 
COLLISIONENERGY: 20eV
INSTRUMENTTYPE: QTOF Agilent 6545
Num Peaks: 3
108.022 42
109.03117 100
153.01956 2

NAME: 2-5-Dihydroxybenzoic acid
PRECURSORMZ: 153.01939
PRECURSORTYPE: [M-H]-
FORMULA: C7H6O4
RETENTIONTIME: 2.125
IONMODE: Negative
COMMENT: Spectra extracted with MS2extract R package
INCHIKEY: WXTMDXOMEHJXQO-UHFFFAOYSA-N
SMILES: C1=CC(=C(C=C1O)C(=O)O)O
CCS: 
COLLISIONENERGY: 20eV
INSTRUMENTTYPE: QTOF Agilent 6545
Num Peaks: 2
108.0241 100
109.02982 53

NAME: 2-6-Dihydroxybenzoic acid
PRECURSORMZ: 153.01939
PRECURSORTYPE: [M-H]-
FORMULA: C7H6O4
RETENTIONTIME: 2.176
IONMODE: Negative
COMMENT: Spectra extracted with MS2extract R package
INCHIKEY: AKEUNCKRJATALU-UHFFFAOYSA-N
SMILES: C1=CC(=C(C(=C1)O)C(=O)O)O
CCS: 
COLLISIONENERGY: 20eV
INSTRUMENTTYPE: QTOF Agilent 6545
Num Peaks: 3
109.0308 100
135.00915 29
153.01961 7

NAME: 2,4,6-Trihydroxybenzaldehyde
PRECURSORMZ: 153.01939
PRECURSORTYPE: [M-H]-
FORMULA: C7H6O4
RETENTIONTIME: 2.594
IONMODE: Negative
COMMENT: Spectra extracted with MS2extract R package
INCHIKEY: CRBZVDLXAIFERF-UHFFFAOYSA-N
SMILES: COC1=CC(=C(C(=C1)OC)C=O)OC
CCS: 
COLLISIONENERGY: 20eV
INSTRUMENTTYPE: QTOF Agilent 6545
Num Peaks: 6
107.01388 87
109.02967 8
111.00875 3
125.02468 13
151.00363 100
153.01912 24

NAME: 3-4-Dihydroxybenzoic acid
PRECURSORMZ: 153.01939
PRECURSORTYPE: [M-H]-
FORMULA: C7H6O4
RETENTIONTIME: 1.842
IONMODE: Negative
COMMENT: Spectra extracted with MS2extract R package
INCHIKEY: YQUVCSBJEUQKSH-UHFFFAOYSA-N
SMILES: C1=CC(=C(C=C1C(=O)O)O)O
CCS: 
COLLISIONENERGY: 20eV
INSTRUMENTTYPE: QTOF Agilent 6545
Num Peaks: 2
108.02331 43
109.03292 100

NAME: 3-Hydroxybenzaldehyde
PRECURSORMZ: 121.0296
PRECURSORTYPE: [M-H]-
FORMULA: C7H6O2
RETENTIONTIME: 2.591
IONMODE: Negative
COMMENT: Spectra extracted with MS2extract R package
INCHIKEY: IAVREABSGIHHMO-UHFFFAOYSA-N
SMILES: C1=CC(=CC(=C1)O)C=O
CCS: 
COLLISIONENERGY: 20eV
INSTRUMENTTYPE: QTOF Agilent 6545
Num Peaks: 2
120.02179 4
121.02999 100

NAME: 4-Hydroxybenzaldehyde
PRECURSORMZ: 121.0296
PRECURSORTYPE: [M-H]-
FORMULA: C7H6O2
RETENTIONTIME: 2.459
IONMODE: Negative
COMMENT: Spectra extracted with MS2extract R package
INCHIKEY: RGHHSNMVTDWUBI-UHFFFAOYSA-N
SMILES: C1=CC(=CC=C1C=O)O
CCS: 
COLLISIONENERGY: 20eV
INSTRUMENTTYPE: QTOF Agilent 6545
Num Peaks: 2
120.02154 29
121.03144 100

NAME: Ascorbic acid
PRECURSORMZ: 175.02431
PRECURSORTYPE: [M-H]-
FORMULA: C6H8O6
RETENTIONTIME: 0.329
IONMODE: Negative
COMMENT: Spectra extracted with MS2extract R package
INCHIKEY: CIWBSHSKHKDKBQ-JLAZNSOCSA-N
SMILES: C(C(C1C(=C(C(=O)O1)O)O)O)O
CCS: 
COLLISIONENERGY: 20eV
INSTRUMENTTYPE: QTOF Agilent 6545
Num Peaks: 469
100.13602 5
100.93071 14
100.97912 2
101.01393 7
102.96847 5
104.19899 7
104.53308 2
104.58915 2
105.25526 5
107.84404 3
111.00932 9
111.58425 7
112.94919 4
112.98307 4
113.02125 19
114.59897 4
114.92241 10
115.00255 100
115.05806 3
115.30242 3
115.37154 2
115.75095 2
116.21635 2
117.01759 14
117.74408 5
118.24327 2
118.71628 2
118.89543 8
118.9547 4
122.35909 11
124.98869 19
125.99258 9
126.99844 22
127.24703 2
128.07227 2
130.03869 2
130.87563 4
130.89933 9
130.96462 20
130.98726 10
132.51712 3
135.04238 3
138.8033 2
138.92679 3
142.99559 5
143.42718 2
143.47419 14
143.97136 3
144.95939 2
145.0018 14
146.92936 2
147.62183 4
148.43339 3
148.91267 3
148.92547 2
150.84292 5
151.34066 3
154.20294 2
154.77772 3
154.8636 2
156.33499 3
158.21814 2
160.17056 2
162.42692 3
163.83893 2
165.73152 2
168.47923 13
169.67863 2
170.30681 4
172.31771 2
174.82646 55
174.85659 21
175.31033 2
175.73001 3
175.8416 2
176.8147 2
177.37311 3
178.85443 2
179.32434 2
180.69581 3
183.46944 3
184.11516 2
188.64461 2
189.20522 2
189.3023 2
190.90443 2
191.11472 2
195.76893 3
200.80447 2
205.86553 2
206.33284 2
207.24434 2
207.65097 9
208.31363 4
209.06368 6
209.12012 3
212.46386 2
214.6296 4
215.69658 4
217.55688 2
218.25294 2
224.93714 2
233.298 2
235.02246 2
235.25699 2
235.31035 2
241.97785 5
243.62326 2
244.06851 4
246.41917 2
249.1896 3
249.94387 11
254.43652 2
255.89191 2
260.23016 3
271.04322 2
273.06749 2
275.91325 2
281.73105 8
287.40935 11
291.08605 2
291.34717 7
292.11956 2
296.29953 2
296.86477 3
298.34466 7
299.84755 3
303.11966 5
303.30213 3
306.05258 4
307.38462 2
308.30086 2
312.23147 2
313.24432 2
313.99743 3
318.23842 9
318.43549 6
326.42244 4
327.23201 5
327.25601 2
328.20897 4
328.81163 2
329.2759 2
331.40801 3
336.28067 3
339.36716 2
347.3972 7
351.62085 3
354.01222 4
354.6931 2
364.88016 4
365.71051 3
367.45526 5
368.80292 3
371.79174 2
372.77899 2
376.21725 2
382.6376 3
386.9151 3
394.6568 5
395.81052 4
396.90059 2
397.6841 2
398.44739 3
401.1101 3
402.97773 2
405.78898 2
413.17652 3
413.27584 2
414.46543 3
418.53794 2
425.61597 8
426.87296 5
427.45346 2
433.77407 3
433.82455 4
436.86518 6
437.5038 2
437.60571 2
449.29539 2
449.79826 2
455.45109 5
460.02567 3
461.1303 3
465.22673 4
467.31023 2
472.14917 2
478.51451 9
478.6759 4
480.87069 3
483.05163 2
486.79435 2
489.63951 2
494.03019 2
497.75944 4
500.09506 2
500.80355 5
501.79808 2
510.73324 2
511.80242 2
526.45758 3
526.68144 2
530.79534 11
535.22184 3
535.90626 4
543.83989 2
545.50098 3
546.04601 2
559.81411 3
561.02361 2
563.22188 3
565.5554 3
565.78432 2
569.73103 9
574.0385 10
575.42852 2
577.89896 2
583.96183 6
585.31168 2
585.36208 3
585.59942 3
589.11865 2
591.61593 3
593.05314 5
595.79718 2
599.59694 2
599.90662 4
604.15079 3
607.41221 3
607.80141 2
610.62027 5
614.66477 3
614.81261 3
623.31768 2
625.55407 3
630.33221 2
632.14064 2
633.75031 2
637.4104 6
639.65336 2
640.8983 12
642.0453 2
642.81875 9
643.69767 3
647.94768 5
652.95935 3
656.21584 4
662.66322 3
668.10363 3
671.30781 4
680.07319 3
680.79331 4
690.0045 6
693.13272 15
693.18421 2
693.30439 6
696.39258 4
699.59523 2
699.70674 3
701.27758 3
703.3024 3
706.95182 6
738.3294 6
743.88126 8
746.13019 3
748.63786 3
749.16186 12
756.50305 7
767.96158 7
768.85871 4
769.21297 3
772.28762 2
776.69129 2
777.61414 3
780.42515 2
782.19729 11
783.39043 2
789.08635 14
789.35864 2
790.27521 3
793.09197 4
797.07453 2
797.52564 3
799.5592 2
815.18246 2
815.40885 5
817.03543 2
822.33269 5
827.82968 3
836.29413 7
846.84047 8
847.42658 4
850.08256 4
855.14892 10
857.99529 3
861.37134 3
876.25009 2
877.4857 5
891.8209 2
897.57137 2
902.11183 2
903.52108 2
905.05586 3
915.4894 2
920.76038 4
921.81542 4
924.778 4
926.81268 3
933.51601 2
937.55196 6
941.69219 2
942.98385 2
944.54332 2
945.39996 5
950.74181 5
953.96289 5
967.97717 2
979.48188 6
979.78766 3
993.72207 3
995.40292 6
997.95042 4
999.53047 6
1007.36036 2
1010.6299 2
1013.02947 2
1019.02529 4
1024.69435 4
1026.24126 5
1032.00206 2
1033.75179 3
1034.16809 10
1035.56561 2
1044.57871 3
1057.51961 3
1068.0708 2
1071.31326 2
1082.37893 3
1086.98482 4
1088.46033 2
1089.84412 2
1091.44869 2
1096.1828 2
1103.72817 2
1106.68406 2
1113.53759 4
1116.50181 2
1126.64511 14
1126.98585 2
1127.90531 2
1138.88603 6
1139.97332 2
1145.94878 2
1147.84654 6
1149.5891 5
1158.73543 8
1159.80893 2
1166.02663 14
1180.94644 4
1186.53009 5
1192.36633 3
1195.81841 2
1198.51408 2
1205.91843 2
1217.84934 2
1222.07548 2
1224.83613 2
1239.98332 3
1245.06974 3
1257.49166 2
1265.33431 2
1270.61663 2
1270.73119 3
1272.77821 3
1281.73615 2
1283.1544 2
1284.52852 2
1286.92196 5
1290.02732 4
1301.24073 2
1304.08932 3
1304.36867 5
1304.91618 5
1305.35665 3
1310.99158 2
1325.24409 4
1326.11698 6
1328.94056 3
1329.14441 3
1331.90918 3
1333.39517 5
1346.10781 2
1352.96919 2
1359.36898 3
1361.20329 2
1366.11332 14
1369.66949 5
1370.97031 3
1378.2008 2
1380.53693 6
1389.2337 3
1401.43315 6
1401.81802 7
1403.56237 3
1404.52923 2
1408.11714 7
1412.01352 7
1418.53195 3
1422.50182 3
1428.26441 2
1432.55138 2
1438.91445 2
1456.77617 3
1463.843 2
1464.18706 3
1467.69315 9
1471.0487 4
1480.46044 3
1482.07698 2
1482.25813 6
1483.66268 2
1488.36864 2
1489.89561 2
1493.26839 3
1495.34672 2
1505.41226 3
1507.36902 3
1509.1843 2
1510.77247 2
1516.96661 3
1517.87628 3
1525.47172 3
1527.224 2
1529.8528 2
1534.46061 3
1540.05242 4
1542.71535 8
1542.78635 3
1544.10538 9
1549.57457 2
1550.78341 2
1552.51957 4
1563.97925 3
1567.39059 2
1576.20598 11
1582.23498 3
1582.88839 8
1593.53064 4
1595.39049 3
1597.8024 4
1599.13056 2
1607.44116 3
1617.26672 2
1623.43401 3
1623.56667 2
1623.63544 3
1626.81659 2
1636.51949 4
1642.57586 2
1643.65066 2
1646.04514 6
1663.62525 4
1666.91338 3
1669.81322 3
1679.40795 2
1679.63325 2
1684.25884 2
1687.81711 3
1692.89963 10

NAME: Astragalin
PRECURSORMZ: 447.0928
PRECURSORTYPE: [M-H]-
FORMULA: C21H20O11
RETENTIONTIME: 3.048
IONMODE: Negative
COMMENT: Spectra extracted with MS2extract R package
INCHIKEY: JPUKWEQWGBDDQB-QSOFNFLRSA-N
SMILES: C1=CC(=CC=C1C2=C(C(=O)C3=C(C=C(C=C3O2)O)O)OC4C(C(C(C(O4)CO)O)O)O)O
CCS: 
COLLISIONENERGY: 20eV
INSTRUMENTTYPE: QTOF Agilent 6545
Num Peaks: 9
151.00379 2
227.03527 4
255.03007 8
256.03724 2
284.03307 64
285.04027 27
327.05106 2
447.09464 100
448.09773 6

NAME: Caffeic acid
PRECURSORMZ: 179.0351
PRECURSORTYPE: [M-H]-
FORMULA: C9H8O4
RETENTIONTIME: 2.385
IONMODE: Negative
COMMENT: Spectra extracted with MS2extract R package
INCHIKEY: QAIPRVGONGVQAS-DUXPYHPUSA-N
SMILES: C1=CC(=C(C=C1C=CC(=O)O)O)O
CCS: 
COLLISIONENERGY: 20eV
INSTRUMENTTYPE: QTOF Agilent 6545
Num Peaks: 4
107.04961 5
117.03422 2
134.03678 24
135.04662 100

NAME: Catechin
PRECURSORMZ: 289.07123
PRECURSORTYPE: [M-H]-
FORMULA: C15H14O6
RETENTIONTIME: 2.216
IONMODE: Negative
COMMENT: Spectra extracted with MS2extract R package
INCHIKEY: PFTAWBLQPZVEMU-DZGCQCFKSA-N
SMILES: C1C(C(OC2=CC(=CC(=C21)O)O)C3=CC(=C(C=C3)O)O)O
CCS: 
COLLISIONENERGY: 20eV
INSTRUMENTTYPE: QTOF Agilent 6545
Num Peaks: 53
108.0215 2
109.02909 100
121.02927 16
122.03679 4
123.04472 57
125.02397 79
135.04469 7
137.02411 41
138.03172 5
139.03957 9
145.02899 4
146.03672 3
147.04444 2
149.02428 21
150.03148 3
151.03958 48
159.04473 7
160.05254 6
161.02383 4
161.06067 21
162.03173 7
163.03949 5
164.01129 13
165.0191 18
166.02643 3
167.03461 9
173.06039 3
174.03167 2
174.06772 2
175.03953 9
175.07584 8
177.05513 3
179.03449 28
185.06024 3
186.0679 2
187.03995 20
188.04775 16
199.07589 3
201.05543 2
202.06318 13
203.07085 79
205.05022 43
212.04712 3
217.04997 2
217.08642 4
221.08176 33
227.07106 12
230.0579 5
231.02946 3
245.08148 70
247.06068 7
271.06061 5
289.07154 40

NAME: Chlorogenic acid
PRECURSORMZ: 353.08789
PRECURSORTYPE: [M-H]-
FORMULA: C16H18O9
RETENTIONTIME: 2.251
IONMODE: Negative
COMMENT: Spectra extracted with MS2extract R package
INCHIKEY: CWVRJTMFETXNAD-JUHZACGLSA-N
SMILES: C1C(C(C(CC1(C(=O)O)O)OC(=O)C=CC2=CC(=C(C=C2)O)O)O)O
CCS: 
COLLISIONENERGY: 20eV
INSTRUMENTTYPE: QTOF Agilent 6545
Num Peaks: 2
161.02403 2
191.05725 100

NAME: Corsolic acid
PRECURSORMZ: 471.34741
PRECURSORTYPE: [M-H]-
FORMULA: C30H48O4
RETENTIONTIME: 6.231
IONMODE: Negative
COMMENT: Spectra extracted with MS2extract R package
INCHIKEY: HFGSQOYIOKBQOW-ZSDYHTTISA-N
SMILES: CC1CCC2(CCC3(C(=CCC4C3(CCC5C4(CC(C(C5(C)C)O)O)C)C)C2C1C)C)C(=O)O
CCS: 
COLLISIONENERGY: 20eV
INSTRUMENTTYPE: QTOF Agilent 6545
Num Peaks: 2
471.34772 100
472.35082 8

NAME: D-Sorbitol
PRECURSORMZ: 181.07179
PRECURSORTYPE: [M-H]-
FORMULA: C6H14O6
RETENTIONTIME: 0.331
IONMODE: Negative
COMMENT: Spectra extracted with MS2extract R package
INCHIKEY: FBPFZTCFMRRESA-JGWLITMVSA-N
SMILES: C(C(C(C(C(CO)O)O)O)O)O
CCS: 
COLLISIONENERGY: 20eV
INSTRUMENTTYPE: QTOF Agilent 6545
Num Peaks: 8
101.02472 100
113.02435 16
115.03983 2
119.03504 3
121.05048 2
131.03469 2
163.06079 3
181.07143 12

NAME: Ellagic acid
PRECURSORMZ: 300.99911
PRECURSORTYPE: [M-H]-
FORMULA: C14H6O8
RETENTIONTIME: 2.84
IONMODE: Negative
COMMENT: Spectra extracted with MS2extract R package
INCHIKEY: AFSDNFLWKVMVRB-UHFFFAOYSA-N
SMILES: C1=C2C3=C(C(=C1O)O)OC(=O)C4=CC(=C(C(=C43)OC2=O)O)O
CCS: 
COLLISIONENERGY: 20eV
INSTRUMENTTYPE: QTOF Agilent 6545
Num Peaks: 3
229.01382 2
257.00871 2
300.99897 100

NAME: Eriocitrin
PRECURSORMZ: 595.16632
PRECURSORTYPE: [M-H]-
FORMULA: C27H32O15
RETENTIONTIME: 2.717
IONMODE: Negative
COMMENT: Spectra extracted with MS2extract R package
INCHIKEY: OMQADRGFMLGFJF-MNPJBKLOSA-N
SMILES: CC1C(C(C(C(O1)OCC2C(C(C(C(O2)OC3=CC(=C4C(=O)CC(OC4=C3)C5=CC(=C(C=C5)O)O)O)O)O)O)O)O)O
CCS: 
COLLISIONENERGY: 20eV
INSTRUMENTTYPE: QTOF Agilent 6545
Num Peaks: 7
135.04515 3
151.00336 19
287.05768 100
288.0595 8
459.11452 4
595.16682 26
596.17044 3

NAME: Fisetin
PRECURSORMZ: 285.0405
PRECURSORTYPE: [M-H]-
FORMULA: C15H10O6
RETENTIONTIME: 3.223
IONMODE: Negative
COMMENT: Spectra extracted with MS2extract R package
INCHIKEY: XHEFDIBZLJXQHF-UHFFFAOYSA-N
SMILES: C1=CC(=C(C=C1C2=C(C(=O)C3=C(O2)C=C(C=C3)O)O)O)O
CCS: 
COLLISIONENERGY: 20eV
INSTRUMENTTYPE: QTOF Agilent 6545
Num Peaks: 12
109.02958 2
121.02962 48
135.00879 100
149.02466 14
163.0036 30
211.03993 3
213.05552 3
229.05082 12
239.03446 2
241.05053 5
257.04546 6
285.04046 55

NAME: Gallic acid
PRECURSORMZ: 169.0143
PRECURSORTYPE: [M-H]-
FORMULA: C7H6O5
RETENTIONTIME: 1.204
IONMODE: Negative
COMMENT: Spectra extracted with MS2extract R package
INCHIKEY: FFMYRWYMARPJCC-UHFFFAOYSA-N
SMILES: C1=CC=C(C=C1)COC(=O)C2=CC(=C3C(=C2)OC(O3)(C4=CC=CC=C4)C5=CC=CC=C5)O
CCS: 
COLLISIONENERGY: 20eV
INSTRUMENTTYPE: QTOF Agilent 6545
Num Peaks: 4
107.01346 6
124.01627 10
125.02513 100
169.014 2

NAME: Glucose
PRECURSORMZ: 179.05611
PRECURSORTYPE: [M-H]-
FORMULA: C6H12O6
RETENTIONTIME: 0.331
IONMODE: Negative
COMMENT: Spectra extracted with MS2extract R package
INCHIKEY: WQZGKKKJIJFFOK-GASJEMHNSA-N
SMILES: C(C1C(C(C(C(O1)O)O)O)O)O
CCS: 
COLLISIONENERGY: 20eV
INSTRUMENTTYPE: QTOF Agilent 6545
Num Peaks: 209
100.40131 4
100.76117 2
100.77476 2
100.98021 6
101.02362 100
101.07015 2
102.07533 2
104.2524 2
104.99282 3
105.90927 2
106.30256 2
106.36781 3
106.69956 2
106.89743 3
106.93299 4
107.04897 7
113.02417 97
113.0737 2
113.2719 2
113.46612 2
113.47977 2
113.61055 3
114.33056 3
117.42116 2
118.19713 2
118.89877 6
119.03319 6
120.26808 2
123.87103 2
133.08623 2
133.15121 3
134.03681 3
134.50207 2
134.87417 3
134.91295 3
134.98918 8
135.04494 58
141.75959 2
149.36469 2
150.13725 4
150.74042 4
164.8715 3
173.54386 2
176.43355 3
189.99051 2
190.14741 2
207.42727 2
209.13417 2
210.49887 2
219.10555 3
220.67786 3
234.96085 2
250.61585 3
260.91154 2
265.83879 2
270.54757 2
272.34039 2
277.28104 5
278.9027 4
279.36945 3
280.53645 2
290.11264 2
290.47243 2
294.21553 2
295.7691 2
301.01908 3
303.26038 3
303.85654 2
314.24892 2
319.99573 2
320.74351 2
322.36047 5
327.87481 4
329.07806 2
333.62157 4
335.70677 3
342.82091 2
349.57887 4
359.08183 2
361.02417 3
365.36023 4
367.64369 2
369.96702 5
371.37473 2
373.74174 3
374.31267 2
392.45325 4
396.15437 2
408.15815 4
408.56761 3
441.18778 2
442.07736 3
453.56839 2
458.84505 2
465.75126 2
477.28839 2
481.53518 2
484.46052 2
487.62987 6
491.48659 3
508.16166 3
511.74932 6
516.52403 6
516.82964 2
526.57887 2
531.51568 3
557.15405 2
567.82309 2
568.1069 3
574.51404 2
585.49345 2
588.40527 2
597.62627 2
601.08852 2
611.21507 2
652.87893 2
660.1833 3
660.51631 2
666.18424 2
672.4638 3
681.16808 2
681.74912 2
700.33523 5
700.9784 2
704.24846 2
710.75028 3
715.27182 2
741.76401 2
749.66227 3
784.14005 2
784.72964 4
786.16407 3
788.8691 2
791.27347 2
814.62044 2
828.12003 2
835.73224 2
848.06225 5
854.17517 4
864.69777 3
869.84743 2
878.46846 2
882.53076 4
890.7364 3
897.78624 3
899.13373 2
918.187 2
921.47589 2
933.98459 2
951.4513 2
952.08853 3
952.69112 3
958.18606 2
971.50188 3
978.02963 2
979.41817 4
988.01915 2
1001.23643 2
1009.86755 2
1031.23567 2
1036.47595 2
1040.86119 2
1042.16294 3
1044.35686 6
1091.68852 3
1105.70625 2
1125.9547 2
1126.27402 2
1131.37612 2
1136.79883 2
1149.31965 4
1157.03778 2
1161.22968 2
1168.51415 2
1178.3311 6
1199.8384 2
1219.24485 2
1269.99094 3
1291.48811 2
1323.89684 3
1342.66609 3
1344.94115 2
1360.65075 2
1367.47687 2
1368.21258 2
1374.1733 2
1388.04097 2
1417.36356 2
1426.27298 3
1428.60402 2
1436.17568 2
1459.88387 2
1469.34025 2
1482.34233 2
1484.38846 3
1485.05979 4
1505.81631 3
1512.26682 2
1525.05736 2
1531.64493 2
1554.74867 2
1599.25063 2
1630.41791 4
1633.80607 2
1639.18381 2
1651.17071 4
1655.33517 2
1658.0265 3
1690.16009 2

NAME: Herbacetin
PRECURSORMZ: 301.03491
PRECURSORTYPE: [M-H]-
FORMULA: C15H10O7
RETENTIONTIME: 3.467
IONMODE: Negative
COMMENT: Spectra extracted with MS2extract R package
INCHIKEY: ZDOTZEDNGNPOEW-UHFFFAOYSA-N
SMILES: C1=CC(=CC=C1C2=C(C(=O)C3=C(O2)C(=C(C=C3O)O)O)O)O
CCS: 
COLLISIONENERGY: 20eV
INSTRUMENTTYPE: QTOF Agilent 6545
Num Peaks: 6
201.05557 2
211.03993 2
229.05066 3
239.03468 2
255.02972 3
301.03564 100

NAME: Isoquercitrin
PRECURSORMZ: 463.0882
PRECURSORTYPE: [M-H]-
FORMULA: C21H20O12
RETENTIONTIME: 2.842
IONMODE: Negative
COMMENT: Spectra extracted with MS2extract R package
INCHIKEY: OVSQVDMCBVZWGM-LQSBFMDOSA-N
SMILES: C1=CC(=C(C=C1C2=C(C(=O)C3=C(C=C(C=C3O2)O)O)OC4C(C(C(C(O4)CO)O)O)O)O)O
CCS: 
COLLISIONENERGY: 20eV
INSTRUMENTTYPE: QTOF Agilent 6545
Num Peaks: 9
151.00326 2
178.99819 2
255.02943 2
271.02451 4
300.02779 100
301.03518 72
302.03849 3
463.08823 72
464.09127 4

NAME: Isorhamnetin
PRECURSORMZ: 315.05051
PRECURSORTYPE: [M-H]-
FORMULA: C16H12O7
RETENTIONTIME: 4.057
IONMODE: Negative
COMMENT: Spectra extracted with MS2extract R package
INCHIKEY: IZQSVPBOUDKVDZ-UHFFFAOYSA-N
SMILES: COC1=C(C=CC(=C1)C2=C(C(=O)C3=C(C=C(C=C3O2)O)O)O)O
CCS: 
COLLISIONENERGY: 20eV
INSTRUMENTTYPE: QTOF Agilent 6545
Num Peaks: 3
151.0035 5
300.02735 100
315.05078 48

NAME: Kaempferide
PRECURSORMZ: 299.05551
PRECURSORTYPE: [M-H]-
FORMULA: C16H12O6
RETENTIONTIME: 4.809
IONMODE: Negative
COMMENT: Spectra extracted with MS2extract R package
INCHIKEY: SQFSKOYWJBQGKQ-UHFFFAOYSA-N
SMILES: COC1=CC=C(C=C1)C2=C(C(=O)C3=C(C=C(C=C3O2)O)O)O
CCS: 
COLLISIONENERGY: 20eV
INSTRUMENTTYPE: QTOF Agilent 6545
Num Peaks: 3
151.00345 6
284.03251 100
299.05668 31

NAME: Kaempferol 
PRECURSORMZ: 285.0405
PRECURSORTYPE: [M-H]-
FORMULA: C15H10O6
RETENTIONTIME: 3.975
IONMODE: Negative
COMMENT: Spectra extracted with MS2extract R package
INCHIKEY: IYRMWMYZSQPJKC-UHFFFAOYSA-N
SMILES: C1=CC(=CC=C1C2=C(C(=O)C3=C(C=C(C=C3O2)O)O)O)O
CCS: 
COLLISIONENERGY: 20eV
INSTRUMENTTYPE: QTOF Agilent 6545
Num Peaks: 5
151.00382 3
185.06073 2
229.05074 2
257.04541 2
285.04291 100

NAME: Malic acid
PRECURSORMZ: 133.01372
PRECURSORTYPE: [M-H]-
FORMULA: C4H6O5
RETENTIONTIME: 0.378
IONMODE: Negative
COMMENT: Spectra extracted with MS2extract R package
INCHIKEY: BJEPYKJPYRNKOW-UHFFFAOYSA-N
SMILES: C(C(C(=O)O)O)C(=O)O
CCS: 
COLLISIONENERGY: 20eV
INSTRUMENTTYPE: QTOF Agilent 6545
Num Peaks: 2
115.00377 100
133.01425 5

NAME: Melezitose
PRECURSORMZ: 503.1618
PRECURSORTYPE: [M-H]-
FORMULA: C18H32O16
RETENTIONTIME: 0.333
IONMODE: Negative
COMMENT: Spectra extracted with MS2extract R package
INCHIKEY: QWIZNVHXZXRPDR-WSCXOGSTSA-N
SMILES: C(C1C(C(C(C(O1)OC2C(C(OC2(CO)OC3C(C(C(C(O3)CO)O)O)O)CO)O)O)O)O)O
CCS: 
COLLISIONENERGY: 20eV
INSTRUMENTTYPE: QTOF Agilent 6545
Num Peaks: 16
101.02449 34
107.03453 2
113.02443 32
119.03509 30
125.02408 2
131.0351 15
143.03508 18
149.04569 3
161.0455 17
179.05614 31
233.06601 2
323.0987 100
324.10116 4
341.10889 9
503.16161 71
504.16556 4

NAME: Narcissin
PRECURSORMZ: 623.16119
PRECURSORTYPE: [M-H]-
FORMULA: C28H32O16
RETENTIONTIME: 3.007
IONMODE: Negative
COMMENT: Spectra extracted with MS2extract R package
INCHIKEY: UIDGLYUNOUKLBM-GEBJFKNCSA-N
SMILES: CC1C(C(C(C(O1)OCC2C(C(C(C(O2)OC3=C(OC4=CC(=CC(=C4C3=O)O)O)C5=CC(=C(C=C5)O)OC)O)O)O)O)O)O
CCS: 
COLLISIONENERGY: 20eV
INSTRUMENTTYPE: QTOF Agilent 6545
Num Peaks: 5
314.04318 6
315.05098 38
316.05434 2
623.16408 100
624.16613 12

NAME: Naringenin
PRECURSORMZ: 271.06131
PRECURSORTYPE: [M-H]-
FORMULA: C15H12O5
RETENTIONTIME: 3.046
IONMODE: Negative
COMMENT: Spectra extracted with MS2extract R package
INCHIKEY: FTVWIRXFELQLPI-UHFFFAOYSA-N
SMILES: C1C(OC2=CC(=CC(=C2C1=O)O)O)C3=CC=C(C=C3)O
CCS: 
COLLISIONENERGY: 20eV
INSTRUMENTTYPE: QTOF Agilent 6545
Num Peaks: 8
107.01391 32
119.05014 76
151.00362 100
165.01881 5
177.01884 12
187.04015 2
227.07154 2
271.06025 23

NAME: Naringin
PRECURSORMZ: 579.17139
PRECURSORTYPE: [M-H]-
FORMULA: C27H32O14
RETENTIONTIME: 3.007
IONMODE: Negative
COMMENT: Spectra extracted with MS2extract R package
INCHIKEY: DFPMSGMNTNDNHN-ZPHOTFPESA-N
SMILES: CC1C(C(C(C(O1)OC2C(C(C(OC2OC3=CC(=C4C(=O)CC(OC4=C3)C5=CC=C(C=C5)O)O)CO)O)O)O)O)O
CCS: 
COLLISIONENERGY: 20eV
INSTRUMENTTYPE: QTOF Agilent 6545
Num Peaks: 6
151.00337 7
271.06082 19
313.07162 2
459.11549 17
579.17349 100
580.17529 14

NAME: Neoeriocitrin
PRECURSORMZ: 595.16632
PRECURSORTYPE: [M-H]-
FORMULA: C27H32O15
RETENTIONTIME: 2.799
IONMODE: Negative
COMMENT: Spectra extracted with MS2extract R package
INCHIKEY: OBKKEZLIABHSGY-DOYQYKRZSA-N
SMILES: CC1C(C(C(C(O1)OC2C(C(C(OC2OC3=CC(=C4C(=O)CC(OC4=C3)C5=CC(=C(C=C5)O)O)O)CO)O)O)O)O)O
CCS: 
COLLISIONENERGY: 20eV
INSTRUMENTTYPE: QTOF Agilent 6545
Num Peaks: 8
135.04532 3
151.00354 9
235.02471 2
287.05613 3
459.11455 29
460.11807 2
595.16943 100
596.17059 14

NAME: Nictoflorin
PRECURSORMZ: 593.15057
PRECURSORTYPE: [M-H]-
FORMULA: C27H30O15
RETENTIONTIME: 2.972
IONMODE: Negative
COMMENT: Spectra extracted with MS2extract R package
INCHIKEY: RTATXGUCZHCSNG-QHWHWDPRSA-N
SMILES: CC1C(C(C(C(O1)OCC2C(C(C(C(O2)OC3=C(OC4=CC(=CC(=C4C3=O)O)O)C5=CC=C(C=C5)O)O)O)O)O)O)O
CCS: 
COLLISIONENERGY: 20eV
INSTRUMENTTYPE: QTOF Agilent 6545
Num Peaks: 5
284.03289 7
285.0403 27
286.04364 2
593.15244 100
594.15542 12

NAME: p-Coumaric acid
PRECURSORMZ: 163.0401
PRECURSORTYPE: [M-H]-
FORMULA: C9H8O3
RETENTIONTIME: 2.71
IONMODE: Negative
COMMENT: Spectra extracted with MS2extract R package
INCHIKEY: NGSWKAQJJWESNS-ZZXKWVIFSA-N
SMILES: C1=CC(=CC=C1C=CC(=O)O)O
CCS: 
COLLISIONENERGY: 20eV
INSTRUMENTTYPE: QTOF Agilent 6545
Num Peaks: 1
119.05236 100

NAME: Phloretin
PRECURSORMZ: 273.07629
PRECURSORTYPE: [M-H]-
FORMULA: C15H14O5
RETENTIONTIME: 3.887
IONMODE: Negative
COMMENT: Spectra extracted with MS2extract R package
INCHIKEY: VGEREEWJJVICBM-UHFFFAOYSA-N
SMILES: C1=CC(=CC=C1CCC(=O)C2=C(C=C(C=C2O)O)O)O
CCS: 
COLLISIONENERGY: 20eV
INSTRUMENTTYPE: QTOF Agilent 6545
Num Peaks: 10
119.04889 35
123.04406 55
125.02288 18
151.00255 4
167.03502 100
179.03378 4
187.07491 2
189.05407 5
229.0857 3
273.0753 16

NAME: Phloridzin
PRECURSORMZ: 435.12909
PRECURSORTYPE: [M-H]-
FORMULA: C21H24O10
RETENTIONTIME: 3.178
IONMODE: Negative
COMMENT: Spectra extracted with MS2extract R package
INCHIKEY: IOUVKUPGCMBWBT-QNDFHXLGSA-N
SMILES: C1=CC(=CC=C1CCC(=O)C2=C(C=C(C=C2OC3C(C(C(C(O3)CO)O)O)O)O)O)O
CCS: 
COLLISIONENERGY: 20eV
INSTRUMENTTYPE: QTOF Agilent 6545
Num Peaks: 6
123.04543 2
125.02493 5
167.03525 29
179.03536 3
273.07754 100
274.08075 3

NAME: Procyanidin
PRECURSORMZ: 593.13013
PRECURSORTYPE: [M-H]-
FORMULA: C30H26O13
RETENTIONTIME: 2.595
IONMODE: Negative
COMMENT: Spectra extracted with MS2extract R package
INCHIKEY: HGVVOUNEGQIPMS-UHFFFAOYSA-N
SMILES: C1C(C(OC2=CC(=CC(=C21)O)O)C3=CC(=C(C=C3)O)O)OC4(C(C(C5=C(C=C(C=C5O4)O)O)O)O)C6=CC(=C(C=C6)O)O
CCS: 
COLLISIONENERGY: 20eV
INSTRUMENTTYPE: QTOF Agilent 6545
Num Peaks: 481
107.10183 2
112.52567 2
114.646 2
114.70512 3
117.3722 3
123.04604 10
125.02397 100
125.07257 2
125.41224 2
125.46825 2
129.43066 2
130.82077 5
131.38433 5
131.66894 2
132.72242 2
136.40457 7
137.02108 11
141.02221 2
141.81337 2
144.45177 2
149.59434 2
150.95419 7
150.97613 4
151.04149 22
153.01629 9
154.90083 2
161.02311 6
163.00351 10
163.07739 2
163.11186 7
164.00804 11
165.01535 8
165.62589 2
167.03271 5
168.17666 2
169.69513 5
173.05945 6
175.00721 8
175.03553 3
175.26564 2
177.01766 16
181.50722 2
182.01988 2
185.72064 2
189.44015 4
190.02509 9
193.05045 14
193.29007 2
195.02802 15
195.43518 2
198.47488 2
199.38164 2
199.46384 2
200.87868 7
211.6758 2
223.77766 3
228.68116 2
228.93139 2
229.28127 6
230.57802 2
242.06232 5
242.11461 2
243.03053 10
244.02395 7
244.62916 2
244.68392 2
245.04775 22
245.21191 2
245.85903 2
246.80736 3
249.02584 2
253.23479 3
253.71667 2
256.7336 2
257.05184 5
257.07905 9
257.15303 4
260.20965 2
261.03607 2
264.92106 8
269.04225 16
271.01706 6
271.06741 2
272.88026 2
274.0647 2
279.94129 3
283.02989 2
283.05756 3
283.28008 7
284.73923 2
285.0351 50
286.0423 10
287.06107 17
287.47726 2
288.05448 11
288.93532 2
289.07307 47
289.40386 2
289.47027 3
290.07334 2
292.51253 3
293.07206 6
297.44234 4
299.9461 3
301.03738 9
302.03947 4
302.19068 4
304.04957 6
304.08522 2
304.60387 2
305.06595 30
306.06553 12
306.98283 2
307.00103 2
307.08118 6
307.26303 2
308.10407 4
312.06075 4
314.87969 2
316.02235 3
321.44084 2
321.91672 3
322.3188 8
322.99166 8
323.12536 8
325.00946 8
325.51137 2
326.05196 6
326.23715 3
326.96066 2
327.0204 4
327.05083 7
327.08038 2
328.05367 2
332.71613 2
332.97483 3
336.70282 2
341.09984 7
341.15461 8
344.75996 10
344.85772 2
347.06576 2
348.74003 3
349.64352 3
350.70258 2
354.01576 4
355.11594 6
360.8394 3
361.07284 5
361.90678 2
364.55071 10
365.85825 4
369.10486 3
369.13949 2
369.31755 3
375.98414 7
377.02213 2
380.18835 3
381.71779 3
385.73248 4
387.56644 5
388.86591 3
390.41257 2
393.09701 4
394.38183 3
395.0684 3
405.05802 5
406.4837 9
407.01635 6
407.07369 27
409.08906 7
411.07129 15
412.81083 3
413.42483 2
414.01909 3
416.06217 2
417.058 8
419.94722 2
420.69183 4
422.25247 2
423.06903 50
423.41627 2
424.67839 2
424.7824 3
425.08597 7
435.06715 3
436.04503 2
440.06264 2
440.11216 6
440.37759 2
441.08119 16
441.58023 2
442.07697 2
444.06119 4
444.39033 2
446.04038 2
447.07352 12
448.06646 6
448.11037 4
449.08626 29
449.54256 2
449.72894 4
452.07566 4
454.08494 11
456.78124 2
457.30757 2
465.08418 4
467.0988 19
468.10358 9
470.07803 7
471.04945 3
471.09677 9
473.41083 4
480.8596 2
483.09422 2
493.16275 7
501.07402 6
502.40822 5
504.27233 2
507.57461 5
510.01484 6
513.07073 4
519.19226 2
521.13506 3
521.91355 2
523.67008 2
523.84516 2
531.49695 2
533.17135 2
533.21322 4
536.08475 2
539.10155 6
540.41489 3
544.30999 3
547.10088 2
547.19368 6
547.98162 3
548.67065 5
549.13865 2
550.00999 2
551.95934 3
554.6832 4
555.3203 5
555.43907 3
555.94253 4
557.09956 12
557.13963 8
557.38615 3
559.53824 4
560.08594 2
562.08734 2
569.06363 3
569.10785 2
571.00098 3
571.07619 6
572.2399 2
573.10237 3
573.42163 4
573.99701 4
574.1041 2
575.11804 62
576.11502 6
577.1254 5
578.12439 4
583.05994 8
585.01093 2
585.10462 6
589.03636 2
593.12971 52
593.25048 5
593.69514 2
593.73866 2
593.78599 2
593.907 2
594.13065 15
594.79247 8
594.94968 2
595.01764 2
595.1947 2
597.05384 6
597.09055 3
597.64084 2
599.12455 5
601.13993 4
602.44557 3
604.36041 2
607.58006 3
608.8794 2
612.49636 2
613.07432 4
614.10731 3
615.11022 6
616.12076 6
621.37447 2
622.941 3
626.44326 3
636.35686 4
650.68098 10
655.73255 5
659.38204 2
665.0405 4
667.08603 3
672.10105 2
684.56487 8
684.74217 3
691.10407 2
691.62429 3
692.55397 3
693.13057 3
694.01856 4
694.12213 5
694.35076 8
695.12862 8
696.12935 5
696.50801 2
697.14403 3
697.17299 4
698.14873 6
699.12111 3
706.04987 3
711.10603 2
712.19746 2
716.11365 2
718.51601 2
720.18618 7
724.39512 2
727.76859 3
733.05249 5
735.13344 4
738.15971 2
738.32107 3
740.22099 3
741.11643 3
748.08134 3
748.46248 2
749.11069 3
750.33862 2
750.98379 2
763.10744 2
773.12935 3
774.65759 2
775.09946 3
779.81312 7
791.70417 2
796.5053 3
803.16146 2
804.94614 3
810.18243 3
811.22719 2
815.86601 8
818.18 2
828.12425 2
828.27369 3
828.79573 2
830.55038 2
832.18282 4
843.17329 4
846.02089 3
847.25636 6
852.08376 5
855.15281 4
856.16383 4
856.34611 2
861.14534 4
862.16899 3
865.31993 2
867.12411 2
867.34973 3
870.67153 3
871.18592 9
873.17502 5
875.34581 10
880.88794 2
882.65091 2
885.14806 2
885.83928 3
886.2295 10
886.90019 2
899.1212 6
900.85408 8
905.67993 5
912.98994 2
914.70143 2
915.32392 4
934.98786 8
940.93457 2
943.24392 4
943.67785 2
945.13979 2
946.06124 2
947.60416 5
952.11652 6
962.27843 2
965.03241 2
969.6164 5
971.7746 3
975.34469 3
975.49531 3
975.59021 2
998.11555 2
1016.19523 2
1024.5126 4
1030.6948 2
1033.99595 2
1040.64808 2
1042.65302 10
1043.20042 2
1045.4624 4
1051.18395 3
1060.26599 3
1060.84729 3
1061.05921 3
1073.14309 3
1087.23589 2
1088.21033 2
1088.5161 4
1103.03055 2
1109.46072 2
1123.31822 2
1136.35041 2
1143.9961 8
1149.71582 2
1153.12022 2
1156.49436 2
1157.76255 2
1201.83831 3
1208.53831 4
1211.51057 2
1211.66641 2
1214.21024 2
1219.7173 2
1229.66922 2
1267.52222 3
1267.69425 2
1273.33568 2
1283.32988 2
1309.82992 3
1320.08167 2
1320.42277 2
1330.00717 2
1338.58695 2
1345.58964 5
1355.42213 2
1362.89043 6
1365.0514 2
1365.83186 3
1372.48682 2
1382.85704 4
1389.16025 4
1405.46261 5
1413.30887 2
1414.60098 2
1455.26276 5
1459.00207 3
1466.50224 2
1492.67702 7
1498.4036 2
1508.28676 4
1512.74312 4
1531.59819 2
1534.25342 2
1541.23371 2
1550.30369 7
1558.13561 5
1562.78394 4
1580.08968 2
1585.60966 2
1594.19169 2
1594.58223 3
1594.9149 2
1601.18199 3
1606.4534 2
1608.10332 2
1613.49023 2
1618.94577 3
1620.38413 4
1625.31285 2
1632.79375 2
1644.06384 6
1650.3404 7
1666.85692 2

NAME: Procyanidin A2
PRECURSORMZ: 575.11957
PRECURSORTYPE: [M-H]-
FORMULA: C30H24O12
RETENTIONTIME: 2.844
IONMODE: Negative
COMMENT: Spectra extracted with MS2extract R package
INCHIKEY: NSEWTSAADLNHNH-LSBOWGMISA-N
SMILES: C1C(C(OC2=C1C(=CC3=C2C4C(C(O3)(OC5=CC(=CC(=C45)O)O)C6=CC(=C(C=C6)O)O)O)O)C7=CC(=C(C=C7)O)O)O
CCS: 
COLLISIONENERGY: 20eV
INSTRUMENTTYPE: QTOF Agilent 6545
Num Peaks: 38
125.02431 10
137.02441 3
161.02449 2
163.00355 3
165.01881 2
217.04996 2
241.05002 2
245.04547 2
245.0817 2
257.0451 2
285.04063 62
286.04387 4
287.05579 7
289.0718 48
290.07495 3
297.03993 4
307.06114 2
313.03573 2
327.05044 7
407.07693 16
408.08161 2
411.07227 9
423.07231 53
424.07537 5
435.07138 3
447.07296 5
449.08799 51
450.09044 6
452.07453 15
453.08155 7
471.1086 2
513.11796 2
531.13006 2
539.09834 22
540.10156 3
557.10809 5
575.11968 100
576.12208 13

NAME: Procyanidin B1
PRECURSORMZ: 577.13519
PRECURSORTYPE: [M-H]-
FORMULA: C30H26O12
RETENTIONTIME: 2.088
IONMODE: Negative
COMMENT: Spectra extracted with MS2extract R package
INCHIKEY: XFZJEEAOWLFHDH-UKWJTHFESA-N
SMILES: C1C(C(OC2=C1C(=CC(=C2C3C(C(OC4=CC(=CC(=C34)O)O)C5=CC(=C(C=C5)O)O)O)O)O)C6=CC(=C(C=C6)O)O)O
CCS: 
COLLISIONENERGY: 20eV
INSTRUMENTTYPE: QTOF Agilent 6545
Num Peaks: 23
125.02453 50
137.02461 4
161.02474 11
205.05046 2
245.04569 5
245.08161 6
273.04043 5
287.05648 12
289.07207 100
290.07531 5
299.05635 8
329.06638 2
339.08727 3
381.09789 4
407.07765 89
408.08076 7
425.08806 39
426.09158 3
451.1041 22
452.10686 2
559.12404 2
577.13584 20
578.13885 2

NAME: Procyanidin B2
PRECURSORMZ: 577.13519
PRECURSORTYPE: [M-H]-
FORMULA: C30H26O12
RETENTIONTIME: 2.337
IONMODE: Negative
COMMENT: Spectra extracted with MS2extract R package
INCHIKEY: XFZJEEAOWLFHDH-NFJBMHMQSA-N
SMILES: C1C(C(OC2=C1C(=CC(=C2C3C(C(OC4=CC(=CC(=C34)O)O)C5=CC(=C(C=C5)O)O)O)O)O)C6=CC(=C(C=C6)O)O)O
CCS: 
COLLISIONENERGY: 20eV
INSTRUMENTTYPE: QTOF Agilent 6545
Num Peaks: 24
125.02458 53
137.02426 4
161.02461 13
175.03956 2
205.05071 2
245.04528 5
245.08119 6
273.04039 6
287.0563 12
289.07178 100
290.07509 5
299.05578 8
329.06651 2
339.08716 3
381.09796 5
407.0774 100
408.08079 8
425.08812 47
426.09153 4
451.10385 22
452.10668 2
559.12481 2
577.13558 19
578.13802 2

NAME: Procyanidin B3
PRECURSORMZ: 577.13519
PRECURSORTYPE: [M-H]-
FORMULA: C30H26O12
RETENTIONTIME: 2.177
IONMODE: Negative
COMMENT: Spectra extracted with MS2extract R package
INCHIKEY: XFZJEEAOWLFHDH-AVFWISQGSA-N
SMILES: C1C(C(OC2=C1C(=CC(=C2C3C(C(OC4=CC(=CC(=C34)O)O)C5=CC(=C(C=C5)O)O)O)O)O)C6=CC(=C(C=C6)O)O)O
CCS: 
COLLISIONENERGY: 20eV
INSTRUMENTTYPE: QTOF Agilent 6545
Num Peaks: 23
125.02384 50
137.02388 4
161.02401 11
205.04968 2
245.04492 5
245.08089 5
273.03961 6
287.05564 11
289.07122 92
290.07463 5
299.05562 8
329.06582 2
339.08677 3
381.09732 4
407.07696 100
408.0804 8
425.08735 45
426.09081 4
451.10332 21
452.10633 2
559.12422 2
577.13504 18
578.13755 2

NAME: Procyanidin C1
PRECURSORMZ: 865.19861
PRECURSORTYPE: [M-H]-
FORMULA: C45H38O18
RETENTIONTIME: 2.468
IONMODE: Negative
COMMENT: Spectra extracted with MS2extract R package
INCHIKEY: MOJZMWJRUKIQGL-XILRTYJMSA-N
SMILES: C1C(C(OC2=C1C(=CC(=C2C3C(C(OC4=C(C(=CC(=C34)O)O)C5C(C(OC6=CC(=CC(=C56)O)O)C7=CC(=C(C=C7)O)O)O)C8=CC(=C(C=C8)O)O)O)O)O)C9=CC(=C(C=C9)O)O)O
CCS: 
COLLISIONENERGY: 20eV
INSTRUMENTTYPE: QTOF Agilent 6545
Num Peaks: 32
125.02455 9
161.02438 2
243.0299 2
245.04556 4
261.04006 2
287.05639 14
289.07185 7
299.05586 2
405.06126 2
407.07711 8
413.08793 8
423.0721 5
425.08767 10
449.08746 5
451.10346 6
533.10857 2
543.09352 3
561.10273 2
575.11941 23
576.12251 3
577.13532 27
578.13824 4
587.11901 4
695.14085 16
696.14352 3
713.15149 17
714.15405 3
739.16643 12
740.16908 2
847.18809 2
865.19869 100
866.20241 21

NAME: Quercetin
PRECURSORMZ: 301.0354
PRECURSORTYPE: [M-H]-
FORMULA: C15H10O7
RETENTIONTIME: 3.592
IONMODE: Negative
COMMENT: Spectra extracted with MS2extract R package
INCHIKEY: REFJWTPEDVJJIY-UHFFFAOYSA-N
SMILES: C1=CC(=C(C=C1C2=C(C(=O)C3=C(C=C(C=C3O2)O)O)O)O)O
CCS: 
COLLISIONENERGY: 20eV
INSTRUMENTTYPE: QTOF Agilent 6545
Num Peaks: 38
107.0136 91
108.02156 11
109.02952 13
117.03442 2
120.02144 3
121.02923 100
124.01639 4
125.02449 2
131.04989 2
133.02923 4
135.00854 2
135.04487 3
136.01627 2
137.02433 2
145.02921 3
147.00834 2
148.01622 2
149.02417 9
151.00332 65
158.03681 2
159.04489 6
161.02413 9
162.03194 2
163.00327 4
163.03935 3
164.01119 5
175.03971 2
177.05553 2
178.99832 2
183.04467 3
187.03948 3
199.03955 3
201.05531 2
211.03954 3
227.0345 4
243.02963 3
245.04513 2
255.02943 2

NAME: Quercetin-3-galactoside
PRECURSORMZ: 463.08771
PRECURSORTYPE: [M-H]-
FORMULA: C21H20O12
RETENTIONTIME: 2.838
IONMODE: Negative
COMMENT: Spectra extracted with MS2extract R package
INCHIKEY: OVSQVDMCBVZWGM-DTGCRPNFSA-N
SMILES: C1=CC(=C(C=C1C2=C(C(=O)C3=C(C=C(C=C3O2)O)O)OC4C(C(C(C(O4)CO)O)O)O)O)O
CCS: 
COLLISIONENERGY: 20eV
INSTRUMENTTYPE: QTOF Agilent 6545
Num Peaks: 17
107.01365 2
121.02921 2
151.00321 13
163.00336 3
178.99827 5
227.03447 3
243.02971 11
245.045 2
254.02151 3
255.02944 36
256.03368 2
271.02466 76
272.03069 5
273.03961 2
283.02425 2
300.02772 100
301.03408 16

NAME: Quercetin-3-glucoside
PRECURSORMZ: 463.0882
PRECURSORTYPE: [M-H]-
FORMULA: C21H20O12
RETENTIONTIME: 2.878
IONMODE: Negative
COMMENT: Spectra extracted with MS2extract R package
INCHIKEY: OVSQVDMCBVZWGM-QSOFNFLRSA-M
SMILES: C1=CC(=C(C=C1C2=C(C(=O)C3=C(C=C(C=C3O2)O)O)OC4C(C(C(C(O4)CO)O)O)O)O)[O-]
CCS: 
COLLISIONENERGY: 20eV
INSTRUMENTTYPE: QTOF Agilent 6545
Num Peaks: 9
151.00396 2
178.99876 2
255.03033 2
271.02516 4
300.0286 100
301.03605 71
302.03929 3
463.08936 71
464.09271 4

NAME: Quercetin-3-O-glucoronide
PRECURSORMZ: 477.06689
PRECURSORTYPE: [M-H]-
FORMULA: C21H18O13
RETENTIONTIME: 2.845
IONMODE: Negative
COMMENT: Spectra extracted with MS2extract R package
INCHIKEY: DUBCCGAQYVUYEU-ZUGPOPFOSA-N
SMILES: C1=CC(=C(C=C1C2=C(C(=O)C3=C(C=C(C=C3O2)O)O)OC4C(C(C(C(O4)C(=O)O)O)O)O)O)O
CCS: 
COLLISIONENERGY: 20eV
INSTRUMENTTYPE: QTOF Agilent 6545
Num Peaks: 6
113.02419 2
151.00355 3
178.99848 3
301.03685 100
302.03875 6
477.0673 8

NAME: Quercitrin
PRECURSORMZ: 447.0928
PRECURSORTYPE: [M-H]-
FORMULA: C21H20O11
RETENTIONTIME: 3.05
IONMODE: Negative
COMMENT: Spectra extracted with MS2extract R package
INCHIKEY: OXGUCUVFOIWWQJ-HQBVPOQASA-N
SMILES: CC1C(C(C(C(O1)OC2=C(OC3=CC(=CC(=C3C2=O)O)O)C4=CC(=C(C=C4)O)O)O)O)O
CCS: 
COLLISIONENERGY: 20eV
INSTRUMENTTYPE: QTOF Agilent 6545
Num Peaks: 9
151.00368 2
178.99854 2
255.02972 2
271.02467 4
300.02805 100
301.03575 98
302.03911 4
447.09342 53
448.09691 3

NAME: Quinic acid
PRECURSORMZ: 191.05557
PRECURSORTYPE: [M-H]-
FORMULA: C7H12O6
RETENTIONTIME: 0.328
IONMODE: Negative
COMMENT: Spectra extracted with MS2extract R package
INCHIKEY: AAWZDTNXLSGCEK-LNVDRNJUSA-N
SMILES: C1C(C(C(CC1(C(=O)O)O)O)O)O
CCS: 
COLLISIONENERGY: 20eV
INSTRUMENTTYPE: QTOF Agilent 6545
Num Peaks: 7
109.02932 8
111.04517 8
127.03972 17
137.02422 2
171.0297 4
173.04545 4
191.05631 100

NAME: Rutin
PRECURSORMZ: 609.14618
PRECURSORTYPE: [M-H]-
FORMULA: C27H30O16
RETENTIONTIME: 2.797
IONMODE: Negative
COMMENT: Spectra extracted with MS2extract R package
INCHIKEY: IKGXIBQEEMLURG-NVPNHPEKSA-N
SMILES: CC1C(C(C(C(O1)OCC2C(C(C(C(O2)OC3=C(OC4=CC(=CC(=C4C3=O)O)O)C5=CC(=C(C=C5)O)O)O)O)O)O)O)O
CCS: 
COLLISIONENERGY: 20eV
INSTRUMENTTYPE: QTOF Agilent 6545
Num Peaks: 4
300.02805 14
301.03575 13
609.15002 100
610.15114 15

NAME: Salycilic acid
PRECURSORMZ: 137.02451
PRECURSORTYPE: [M-H]-
FORMULA: C7H6O3
RETENTIONTIME: 3.139
IONMODE: Negative
COMMENT: Spectra extracted with MS2extract R package
INCHIKEY: YGSDEFSMJLZEOE-UHFFFAOYSA-N
SMILES: C1=CC=C(C(=C1)C(=O)O)O
CCS: 
COLLISIONENERGY: 20eV
INSTRUMENTTYPE: QTOF Agilent 6545
Num Peaks: 1
137.02309 100

NAME: Sucrose
PRECURSORMZ: 341.10901
PRECURSORTYPE: [M-H]-
FORMULA: C12H22O11
RETENTIONTIME: 0.328
IONMODE: Negative
COMMENT: Spectra extracted with MS2extract R package
INCHIKEY: CZMRCDWAGMRECN-UGDNZRGBSA-N
SMILES: C(C1C(C(C(C(O1)OC2(C(C(C(O2)CO)O)O)CO)O)O)O)O
CCS: 
COLLISIONENERGY: 20eV
INSTRUMENTTYPE: QTOF Agilent 6545
Num Peaks: 10
101.02453 100
113.02431 78
119.03488 75
125.02449 2
131.03466 13
143.03468 14
149.04545 5
161.04513 12
179.05563 17
341.10845 15

NAME: Trilobatin
PRECURSORMZ: 435.12909
PRECURSORTYPE: [M-H]-
FORMULA: C21H24O10
RETENTIONTIME: 3.345
IONMODE: Negative
COMMENT: Spectra extracted with MS2extract R package
INCHIKEY: GSTCPEBQYSOEHV-QNDFHXLGSA-N
SMILES: C1=CC(=CC=C1CCC(=O)C2=C(C=C(C=C2O)OC3C(C(C(C(O3)CO)O)O)O)O)O
CCS: 
COLLISIONENERGY: 20eV
INSTRUMENTTYPE: QTOF Agilent 6545
Num Peaks: 9
167.03405 20
191.03404 4
209.04457 4
273.07619 100
274.07925 4
297.0761 16
315.08681 6
327.08628 2
435.12861 2

NAME: Ursolic acid
PRECURSORMZ: 455.35251
PRECURSORTYPE: [M-H]-
FORMULA: C30H48O3
RETENTIONTIME: 7.272
IONMODE: Negative
COMMENT: Spectra extracted with MS2extract R package
INCHIKEY: WCGUUGGRBIKTOS-GPOJBZKASA-N
SMILES: CC1CCC2(CCC3(C(=CCC4C3(CCC5C4(CCC(C5(C)C)O)C)C)C2C1C)C)C(=O)O
CCS: 
COLLISIONENERGY: 20eV
INSTRUMENTTYPE: QTOF Agilent 6545
Num Peaks: 2
455.35326 100
456.35538 9

NAME: Vanillyl acid
PRECURSORMZ: 167.0351
PRECURSORTYPE: [M-H]-
FORMULA: C8H8O4
RETENTIONTIME: 2.386
IONMODE: Negative
COMMENT: Spectra extracted with MS2extract R package
INCHIKEY: WKOLLVMJNQIZCI-UHFFFAOYSA-N
SMILES: COC1=C(C=CC(=C1)C(=O)O)O
CCS: 
COLLISIONENERGY: 20eV
INSTRUMENTTYPE: QTOF Agilent 6545
Num Peaks: 3
108.02184 100
123.04467 2
152.01155 46

NAME: Vanillyl alcohol
PRECURSORMZ: 153.0558
PRECURSORTYPE: [M-H]-
FORMULA: C8H10O3
RETENTIONTIME: 2.05
IONMODE: Negative
COMMENT: Spectra extracted with MS2extract R package
INCHIKEY: ZENOXNGFMSCLLL-UHFFFAOYSA-N
SMILES: COC1=C(C=CC(=C1)CO)O
CCS: 
COLLISIONENERGY: 20eV
INSTRUMENTTYPE: QTOF Agilent 6545
Num Peaks: 12
105.03449 13
106.04213 3
107.01281 2
107.05002 8
108.02132 15
109.02927 25
120.02183 100
121.02935 7
134.03723 5
135.04499 19
138.03197 22
151.00278 2
