BEGIN IONS
PEPMASS=575.11957
CHARGE=1
MSLEVEL=2
FILENAME=PhenolicsDB_Negative.mgf
SCANS=1
SEQ=*..*
IONMODE=Negative
ORGANISM=N/A
NAME=Procyanidin A2 20 eV
PI=Jessica Cooperstone
DATACOLECTOR=DanielitoQuiroz
SMILES=C1C(C(OC2=C1C(=CC3=C2C4C(C(O3)(OC5=CC(=CC(=C45)O)O)C6=CC(=C(C=C6)O)O)O)O)C7=CC(=C(C=C7)O)O)O
INCHI=InChI=1S/C30H24O12/c31-13-7-20(37)24-22(8-13)41-30(12-2-4-16(33)19(36)6-12)29(39)26(24)25-23(42-30)10-17(34)14-9-21(38)27(40-28(14)25)11-1-3-15(32)18(35)5-11/h1-8,10,21,26-27,29,31-39H,9H2/t21-,26-,27-,29-,30+/m1/s1
INCHIAUX=N/A
PUBMED=N/A
LIBRARYQUALITY=1
125.02431	10
137.02441	3
161.02449	2
163.00355	3
165.01881	2
217.04996	2
241.05002	2
245.04547	2
245.0817	2
257.0451	2
285.04063	62
286.04387	4
287.05579	7
289.0718	48
290.07495	3
297.03993	4
307.06114	2
313.03573	2
327.05044	7
407.07693	16
408.08161	2
411.07227	9
423.07231	53
424.07537	5
435.07138	3
447.07296	5
449.08799	51
450.09044	6
452.07453	15
453.08155	7
471.1086	2
513.11796	2
531.13006	2
539.09834	22
540.10156	3
557.10809	5
575.11968	100
576.12208	13
END IONS

BEGIN IONS
PEPMASS=609.14618
CHARGE=1
MSLEVEL=2
FILENAME=PhenolicsDB_Negative.mgf
SCANS=2
SEQ=*..*
IONMODE=Negative
ORGANISM=N/A
NAME=Rutin 20 eV
PI=Jessica Cooperstone
DATACOLECTOR=DanielitoQuiroz
SMILES=CC1C(C(C(C(O1)OCC2C(C(C(C(O2)OC3=C(OC4=CC(=CC(=C4C3=O)O)O)C5=CC(=C(C=C5)O)O)O)O)O)O)O)O
INCHI=InChI=1S/C27H30O16/c1-8-17(32)20(35)22(37)26(40-8)39-7-15-18(33)21(36)23(38)27(42-15)43-25-19(34)16-13(31)5-10(28)6-14(16)41-24(25)9-2-3-11(29)12(30)4-9/h2-6,8,15,17-18,20-23,26-33,35-38H,7H2,1H3/t8-,15+,17-,18+,20+,21-,22+,23+,26+,27-/m0/s1
INCHIAUX=N/A
PUBMED=N/A
LIBRARYQUALITY=2
300.02805	14
301.03575	13
609.15002	100
610.15114	15
END IONS
