NAME: Procyanidin A2
PRECURSORMZ: 575.11957
PRECURSORTYPE: [M-H]-
FORMULA: C30H24O12
RETENTIONTIME: 2.844
IONMODE: Negative
COMMENT: Spectra extracted with MS2extract R package
INCHIKEY: NSEWTSAADLNHNH-LSBOWGMISA-N
SMILES: C1C(C(OC2=C1C(=CC3=C2C4C(C(O3)(OC5=CC(=CC(=C45)O)O)C6=CC(=C(C=C6)O)O)O)O)C7=CC(=C(C=C7)O)O)O
CCS: 
COLLISIONENERGY: 20 eV
INSTRUMENTTYPE: LC-ESI-QTOF
Num Peaks: 38
125.02431 10
137.02441 3
161.02449 2
163.00355 3
165.01881 2
217.04996 2
241.05002 2
245.04547 2
245.0817 2
257.0451 2
285.04063 62
286.04387 4
287.05579 7
289.0718 48
290.07495 3
297.03993 4
307.06114 2
313.03573 2
327.05044 7
407.07693 16
408.08161 2
411.07227 9
423.07231 53
424.07537 5
435.07138 3
447.07296 5
449.08799 51
450.09044 6
452.07453 15
453.08155 7
471.1086 2
513.11796 2
531.13006 2
539.09834 22
540.10156 3
557.10809 5
575.11968 100
576.12208 13
